(declare-const |p':112:128| Int)
(declare-const havoc Int)
(declare-const |q':113:129| Int)
(declare-const |K:126:127| Int)
(declare-const |b':111:130| Int)
(declare-const |a':110:131| Int)
(declare-const |havoc:1| Int)
(assert (and (not (= (ite (<= (+ (- |havoc:1|) 1) 0) 1 0) 0))
               (or (not (<= (- |K:126:127|) 0)) (<= (+ (- |p':112:128|) 1) 0))
               (or (and (= |K:126:127| 0) (= (- |q':113:129|) 0)
                          (= (+ (- |p':112:128|) 1) 0)
                          (= (+ (- |b':111:130|) |havoc:1|) 0)
                          (= (+ (- |a':110:131|) havoc) 0))
                     (and (<= (+ (- |K:126:127|) 1) 0)
                            (<= (+ (* 2 (to_int (* (/ -1 2) havoc))) havoc) 0)
                            (<= (+ (* -2 (to_int (* (/ 1 2) havoc))) havoc -1) 0)
                            (<= (+ (* 2 (to_int (* (/ -1 2) |havoc:1|)))
                                     |havoc:1|) 0)
                            (<= (+ (* -2 (to_int (* (/ 1 2) |havoc:1|)))
                                     |havoc:1| -1) 0)
                            (<= (+ (mod |havoc:1| 2) -1) 0)
                            (<= (+ (mod havoc 2) -1) 0)
                            (<= (- (mod havoc 2)) 0)
                            (<= (- (mod |havoc:1| 2)) 0)
                            (<= (+ (* 2 (to_int (* (/ 1 2) |havoc:1|)))
                                     (- |havoc:1|)) 0)
                            (<= (+ (* -2 (to_int (* (/ -1 2) |havoc:1|)))
                                     (- |havoc:1|) -1) 0)
                            (<= (+ (* 2 (to_int (* (/ 1 2) havoc))) (- havoc)) 0)
                            (<= (+ (* -2 (to_int (* (/ -1 2) havoc)))
                                     (- havoc) -1) 0)
                            (<= (+ (- (* |p':112:128| |p':112:128|))
                                     |p':112:128|) 0)
                            (<= (+ (- |p':112:128|) 1) 0)))
               (<= (- |K:126:127|) 0) (< (- |p':112:128|) 0)
               (= (+ |q':113:129| (* |a':110:131| |b':111:130| |p':112:128|)
                       (- (* havoc |havoc:1|))) 0)
               (or (and (<= (- |a':110:131|) 0) (<= |a':110:131| 0))
                     (and (or (< |a':110:131| 0) (< (- |a':110:131|) 0))
                            (<= (- |b':111:130|) 0) (<= |b':111:130| 0)))
               (not (= (+ |q':113:129| (- (* havoc |havoc:1|))) 0))))
(check-sat)
